2,1,7,1,11,2,3,2,6,3,15,2,3,3,7,3,7,4,10,4,9,4,15,5,1,5;14,1,13,2,4,2,6,1,2,2,2,3,7,2,9,2,11,3,12,3,10,2,10,3,9,3,1,3,1,4,8,5;13,1,4,1,8,1,12,1,3,1,6,2,15,1,14,4,13,4,15,3,3,4,2,5,15,4,5,4,10,5,4,5;9,1,14,2,14,3,4,3,8,2,13,3,2,4,5,1,6,5,14,5,5,3,7,5,11,5,9,5;11,1,1,1,1,2,12,2,10,1,4,4,8,3,6,4,8,4,5,2,12,4,11,4,3,5,13,5,12,5,5,5;
